param n := 10;

param scale := 1000;

set S := "S2C" "S2CPro" "S3";

param I :=
"S2C" 0.305891
"S2CPro" 0.755891
"S3" 0.76198;

param MC := 
"S2C" 28.45
"S2CPro" 34.31
"S3" 40.32;

param RMAX :=
"S2C" 1200
"S2CPro" 3200
"S3" 3200;

param X :=
1 1
2 2
3 3
4 4
5 5
6 6
7 7
8 8
9 9
10 10;

param Y := 
1 1
2 1
3 1
4 1
5 1
6 1
7 1
8 1
9 1
10 1;